NAME : XML100_1262_17
DIMENSION : 101
NB_CLUSTERS : 5
CLUSTERING_ALG : DBSCAN
CLUSTERING_PARAMS : eps(103), minSamples(3)
CLUSTERS
1 0
2 1 2 5 9 10 18 19 22 26 36 37 47 51 53 56 57 64 65 68 71 72 75 80 83 89 90 93 97 100
3 3 12 14 15 16 17 20 23 24 25 27 28 32 33 34 35 38 40 41 43 45 48 52 59 63 67 70 73 76 81 84 85 86 88 91 92 94 95 99
4 4 8 11 30 31 39 42 46 54 55 58 62 66 69 74 98
5 6 7 13 21 29 44 49 50 60 61 77 78 79 82 87 96
EOF